34219
1 1 1 1 1 1 0 1 1 1 1 1 0 0 1 1 1 1 0 1 1 1 1 1 1 1 1 1 0 1
19 20 1 15 9 3 8 3 24 25 9 4 10 14 9 2 7 16 16 20 16 16 4 5 17 8 7 0 3 16 4 5 7 3 2 16 7 24 24 10 1 25 26 1 3 22 3 5 22 19 17 14 5 4 17 4 2 9 14 15 17 27 22 25 15 21 5 14 9 10 15 3 2 8 0 15 16 11 3 14 5 25 11 23 20 5 15 2 24 15 9 29 0 27 29 17 20 29 11 3 29 9 27 11 27 7 1 23 11 9 25 1 29 1 7 17 20 8 11 3 0 10 29 22 21 15 21 21 8 2 23 8 23 9 16 26 5 23 14 1 2 17 19 11 11 19 11 8 11 9 8 11 5 22 4 25 0 24 24 17 23 8 19 17 26 0 2 5 19 23 2 14 24 5 23 10 2 14 27 4 26 4 19 22 21 11 29 1 27 29 16 8 26 20 8 10 4 1 27 8